Normalized Data/p02_27_normalized_splitx10_0.vrp
NAME:p02_27_NORMALIZED_splitx10_
BEST_KNOWN: 0
COMMENT: 0
DIMENSION: 303
CAPACITY: 1000
EDGE_WEIGHT_FORMAT: FUNCTION
EDGE_WEIGHT_TYPE: EXACT_2D
NODE_COORD_SECTION
1 0.00000 0.00000
2 19 26
3 19 26
4 19 26
5 19 26
6 19 26
7 10 27
8 10 27
9 10 27
10 10 27
11 10 27
12 10 27
13 46 27
14 46 27
15 46 27
16 -45 7
17 -45 7
18 -45 7
19 -45 7
20 -41 -27
21 -41 -27
22 -41 -27
23 -41 -27
24 -41 -27
25 13 36
26 -25 42
27 -25 42
28 -25 42
29 6 16
30 6 16
31 6 16
32 6 16
33 6 16
34 6 16
35 -49 -47
36 -49 -47
37 -49 -47
38 -49 -47
39 -49 -47
40 -49 -47
41 -49 -47
42 46 -32
43 46 -32
44 -12 49
45 -12 49
46 -12 49
47 19 -1
48 19 -1
49 19 -1
50 19 -1
51 19 -1
52 19 -1
53 -21 7
54 -21 7
55 -21 7
56 -21 7
57 -21 7
58 -21 7
59 -31 -19
60 -31 -19
61 -31 -19
62 -31 -19
63 -12 -15
64 -12 -15
65 -12 -15
66 -12 -15
67 19 -32
68 19 -32
69 19 -32
70 19 -32
71 -26 -6
72 -26 -6
73 -26 -6
74 -26 -6
75 -44 16
76 -44 16
77 -44 16
78 3 33
79 3 33
80 3 33
81 -9 -1
82 -9 -1
83 -4 -36
84 -4 -36
85 -4 -36
86 -4 -36
87 -4 -36
88 -4 -36
89 -13 -48
90 -13 -48
91 -13 -48
92 -13 -48
93 -13 -48
94 21 43
95 21 43
96 21 43
97 21 43
98 21 43
99 21 43
100 21 43
101 5 30
102 5 30
103 5 30
104 31 20
105 31 20
106 31 20
107 31 20
108 31 20
109 31 20
110 -33 -5
111 -33 -5
112 -48 -12
113 -48 -12
114 -48 -12
115 -48 -12
116 -48 -12
117 38 26
118 38 26
119 38 26
120 38 26
121 -49 -43
122 -49 -43
123 -49 -43
124 -49 -43
125 13 9
126 13 9
127 13 9
128 13 9
129 13 9
130 -37 2
131 -37 2
132 -37 2
133 4 -42
134 4 -42
135 4 -42
136 4 -42
137 22 -24
138 22 -24
139 22 -24
140 22 -24
141 49 36
142 49 36
143 49 36
144 49 36
145 28 -42
146 28 -42
147 28 -42
148 28 -42
149 -8 25
150 -8 25
151 2 23
152 2 23
153 9 28
154 9 28
155 9 28
156 9 28
157 9 28
158 42 10
159 42 10
160 42 10
161 42 10
162 42 10
163 42 10
164 -45 -36
165 -45 -36
166 -45 -36
167 -1 41
168 15 19
169 15 19
170 21 43
171 21 43
172 21 43
173 21 43
174 21 43
175 21 43
176 0 25
177 0 25
178 0 25
179 0 25
180 49 19
181 49 19
182 13 29
183 13 29
184 13 29
185 13 29
186 13 29
187 13 29
188 43 50
189 43 50
190 43 50
191 43 50
192 42 -4
193 42 -4
194 42 -4
195 42 -4
196 42 -4
197 42 -4
198 16 5
199 16 5
200 16 5
201 16 5
202 16 5
203 16 5
204 -21 -39
205 -21 -39
206 -21 -39
207 -21 -39
208 16 36
209 16 36
210 16 36
211 -41 -28
212 -41 -28
213 -41 -28
214 -41 -28
215 7 42
216 7 42
217 7 42
218 7 42
219 7 42
220 7 42
221 -22 9
222 -22 9
223 -13 -14
224 -13 -14
225 -13 -14
226 -13 -14
227 -31 25
228 -31 25
229 -31 25
230 -34 -36
231 -34 -36
232 -34 -36
233 -34 -36
234 1 40
235 1 40
236 32 47
237 32 47
238 32 47
239 32 47
240 -14 -38
241 -14 -38
242 -14 -38
243 -14 -38
244 -45 -22
245 -45 -22
246 -45 -22
247 -45 -22
248 -45 -22
249 -9 -47
250 -9 -47
251 -9 -47
252 34 11
253 34 11
254 34 11
255 34 11
256 34 11
257 34 11
258 34 11
259 49 16
260 49 16
261 49 16
262 19 -11
263 19 -11
264 19 -11
265 19 -11
266 21 -19
267 21 -19
268 21 -19
269 21 -19
270 21 -19
271 2 -6
272 2 -6
273 2 -6
274 2 -6
275 33 17
276 33 17
277 33 17
278 33 17
279 33 17
280 50 18
281 50 18
282 50 18
283 50 18
284 31 25
285 31 25
286 -42 39
287 -42 39
288 -4 -40
289 -38 -26
290 -38 -26
291 -38 -26
292 -38 -26
293 -38 -26
294 -25 35
295 -25 35
296 -25 35
297 -25 35
298 -25 35
299 -25 35
300 29 -41
301 29 -41
302 29 -41
303 29 -41
DEMAND_SECTION
1 0
2 200
3 200
4 10
5 10
6 10
7 200
8 100
9 10
10 10
11 10
12 10
13 100
14 50
15 10
16 100
17 50
18 10
19 10
20 200
21 200
22 50
23 10
24 10
25 200
26 200
27 10
28 10
29 200
30 200
31 50
32 10
33 10
34 10
35 200
36 200
37 50
38 10
39 10
40 10
41 10
42 200
43 50
44 100
45 10
46 10
47 200
48 100
49 50
50 10
51 10
52 10
53 200
54 100
55 10
56 10
57 10
58 10
59 200
60 200
61 50
62 10
63 200
64 50
65 10
66 10
67 100
68 10
69 10
70 10
71 200
72 100
73 10
74 10
75 100
76 50
77 10
78 200
79 100
80 10
81 100
82 50
83 200
84 200
85 50
86 10
87 10
88 10
89 200
90 200
91 50
92 10
93 10
94 200
95 200
96 50
97 10
98 10
99 10
100 10
101 200
102 200
103 100
104 200
105 50
106 10
107 10
108 10
109 10
110 100
111 50
112 100
113 50
114 10
115 10
116 10
117 200
118 200
119 10
120 10
121 200
122 50
123 10
124 10
125 200
126 100
127 50
128 10
129 10
130 200
131 50
132 10
133 200
134 200
135 50
136 10
137 100
138 50
139 10
140 10
141 200
142 200
143 50
144 10
145 200
146 10
147 10
148 10
149 200
150 10
151 200
152 50
153 100
154 50
155 10
156 10
157 10
158 100
159 50
160 10
161 10
162 10
163 10
164 200
165 200
166 10
167 200
168 100
169 50
170 200
171 100
172 50
173 10
174 10
175 10
176 100
177 50
178 10
179 10
180 200
181 50
182 200
183 200
184 10
185 10
186 10
187 10
188 100
189 50
190 10
191 10
192 200
193 50
194 10
195 10
196 10
197 10
198 100
199 50
200 10
201 10
202 10
203 10
204 200
205 50
206 10
207 10
208 200
209 200
210 10
211 200
212 200
213 10
214 10
215 200
216 200
217 50
218 10
219 10
220 10
221 200
222 100
223 200
224 50
225 10
226 10
227 200
228 10
229 10
230 200
231 10
232 10
233 10
234 200
235 50
236 100
237 10
238 10
239 10
240 100
241 50
242 10
243 10
244 200
245 200
246 10
247 10
248 10
249 200
250 100
251 10
252 200
253 200
254 50
255 10
256 10
257 10
258 10
259 200
260 10
261 10
262 100
263 50
264 10
265 10
266 100
267 10
268 10
269 10
270 10
271 200
272 100
273 10
274 10
275 200
276 200
277 50
278 10
279 10
280 100
281 50
282 10
283 10
284 100
285 50
286 100
287 50
288 200
289 200
290 100
291 50
292 10
293 10
294 200
295 100
296 50
297 10
298 10
299 10
300 200
301 100
302 10
303 10
DEPOT_SECTION
1
-1
EOF