Normalized Data/p02_27_normalized_splitx10_0.sol
302 -11 10 7 8 99 94 174 98 172 171 93 170 169 96 95 97 173 -22 20 23 21 19 211 213 212 210 291 289 -30 9 6 184 185 209 208 207 24 155 152 -41 42 299 300 301 302 147 146 144 145 69 66 67 68 -49 48 47 159 160 157 162 161 158 260 259 258 279 282 281 280 179 180 254 -51 46 50 193 191 192 195 196 194 138 137 136 139 269 267 266 268 265 264 261 263 262 -53 52 220 221 70 71 80 -55 54 56 57 129 130 131 15 17 18 16 74 75 76 285 286 228 227 226 -59 61 246 245 243 244 247 115 114 113 112 111 109 110 73 72 -81 58 60 292 288 290 165 164 163 -83 86 87 84 85 82 134 132 133 135 -90 88 92 89 91 250 248 249 287 -101 100 102 78 77 79 175 176 178 177 -120 123 122 121 38 35 34 40 37 36 39 232 230 229 231 -126 14 12 13 141 142 143 140 190 187 188 189 237 236 235 238 -128 127 125 124 32 31 33 29 28 150 151 -148 149 43 45 44 26 25 27 293 298 296 294 295 297 -156 154 153 215 219 216 217 214 218 233 234 166 -167 168 5 1 2 3 4 182 181 186 183 -198 257 253 255 256 251 252 277 276 275 278 274 -200 197 201 202 199 108 106 104 105 107 103 116 119 118 117 283 284 -225 224 223 222 64 65 63 62 203 204 205 206 239 241 240 242 -270 272 273 271 0 





OBJ=
2211.696
BEST_KNOWN=
0.000